&control
prefix='MoS2',
calculation='ph_linewidth',
read_dumped_gr=.true.,
dump_gR=.false.,
elphmat_dir="./mat_elem/"
out2json=.true.
/
&electrons
ngauss=0,
sigma_min=0.01,
sigma_max=0.05
nsigma=5,
/
&phonons
use_alternative_dyn=.true.
prefix_alt_dyn='./dyn_mat/dynq'
Fourier_interp_dyn=.true.,
nq1=8,nq2=8,nq3=1,
/
k-points
automatic
4 4 1 0 0 0
q-points
crystal
1
0.5 0 0 1 ! M
