Dielectric tensor, Born charges, and Raman — gamma only, no phonons
&INPUTPH
  outdir   = './tmp'
  prefix   = 'dielectric'
  epsil    = .true.
  lraman   = .true.
  trans    = .false.
/
0.0 0.0 0.0
