&CONTROL
  calculation = 'scf'
  prefix      = 'dielectric'
  outdir      = './tmp'
/

&SYSTEM
  ibrav       = 0
  nat         = 5
  ntyp        = 3
  ecutwfc     = 50
  ecutrho     = 200
  occupations = 'fixed'
  input_dft   = 'LDA'
/

&ELECTRONS
  conv_thr        = 1.0d-10
/

&IONS
/

&CELL
/

CELL_PARAMETERS angstrom
 6.2340501132548267  0.0000000000000000  0.0000000000000000
 0.0000000000000000  6.2340501132548267  0.0000000000000000
 0.0000000000000000  0.0000000000000000  6.2340501132548267

ATOMIC_SPECIES
 Cs  132.905  Cs.upf
 Pb  207.200  Pb.upf
 I   126.904  I.upf

ATOMIC_POSITIONS angstrom
Cs    3.1170250566274138  3.1170250566274138  3.1170250566274138
Pb    0.0000000000000002  0.0000000000000002  0.0000000000000002
I     3.1170250566274138  0.0000000000000002  0.0000000000000002
I     0.0000000000000002  0.0000000000000002  3.1170250566274138
I     0.0000000000000002  3.1170250566274138  0.0000000000000002

K_POINTS automatic
 4 4 4 1 1 1
